H  C  O  Mo                             
2.0
24.18 0.0 0.0
0.0 22.5 0.0
0.0 0.0 54.0
   H    C    O    Mo
   6     3   108    36
Selective dynamics
Direct
  0.4775828438043057  0.5459795373595202  0.561472608015220    T   T   T
  0.5210119237678090  0.4360960255733525  0.604142086412035    T   T   T
  0.4364870587181142  0.5535510843096481  0.624846491948136    T   T   T
  0.3462499639783888  0.3028950359370569  0.644935986249188    T   T   T
  0.2677158412948288  0.4330575163794124  0.652756706495492    T   T   T
  0.2181780215609802  0.3176795673178919  0.612666545944875    T   T   T
  0.4523153734342663  0.4944162741920022  0.593545634391035    T   T   T
  0.3524723223691411  0.4200868167849441  0.583535256959403    T   T   T
  0.2909998614661846  0.3650075241846922  0.625793427670335    T   T   T
  0.3176443201325781  0.3992474952362438  0.540677027507432    T   T   T
  0.0098649312621003  0.0845901073126010  0.536673472842012    T   T   T
  0.0142843480406670  0.4144679168201608  0.537281754886986    T   T   T
  0.0100957005977165  0.7501619893969538  0.536858163088071    T   T   T
  0.3475529066408111  0.0887467779795112  0.536995181127688    T   T   T
  0.3468406782102821  0.7456430123850927  0.536718450573945    T   T   T
  0.6751086448860328  0.0844057307264472  0.537312929398939    T   T   T
  0.6831883485490962  0.4145440708307455  0.536489214371311    T   T   T
  0.6739874160104090  0.7480298917401474  0.537244908370580    T   T   T
  0.1712301630405267  0.0805078827914852  0.467388930430841    T   T   T
  0.1737877076136198  0.4163875840690605  0.467198708355393    T   T   T
  0.1708891884017009  0.7529217907039849  0.467325562069320    T   T   T
  0.5065351456811559  0.0832243389869916  0.465904245733233    T   T   T
  0.4948901829666625  0.4190353890663983  0.474431580031004    T   T   T
  0.5061836666727654  0.7490072526225936  0.465842759147429    T   T   T
  0.8349527901727318  0.0856992009643953  0.467107252234311    T   T   T
  0.8430234655073531  0.4163293533601615  0.466374888285175    T   T   T
  0.8352593519007426  0.7474808289269412  0.467541925396294    T   T   T
  0.0040323825646219  0.2503042812566442  0.453476692310563    T   T   T
  0.0036161738941376  0.5827820227444663  0.454057235087591    T   T   T
  0.9985897623050521  0.9166549889754241  0.453625319817360    T   T   T
  0.3317436790962459  0.2423429250171196  0.449673353637176    T   T   T
  0.3307234848114958  0.5904236028489421  0.450369996239532    T   T   T
  0.3347138987376228  0.9167788719769503  0.453197266648954    T   T   T
  0.6658962677897672  0.2528540883703906  0.453758846590434    T   T   T
  0.6665939343408163  0.5800736709502874  0.453971038076707    T   T   T
  0.6680008020725349  0.9162296626645809  0.454391644747717    T   T   T
  0.3332455407914222  0.0813367004879059  0.380074036480259    T   T   T
  0.3349054862126508  0.4165420741492346  0.388491597666054    T   T   T
  0.3330558620078376  0.7515969730621892  0.380904064821348    T   T   T
  0.6650004373165287  0.0832487782360327  0.384446878488811    T   T   T
  0.6647218516699438  0.4164925200092736  0.385557707082172    T   T   T
  0.6653516790502715  0.7495419314285952  0.384565495297993    T   T   T
  0.9989443675747351  0.0834337264284044  0.384553226042919    T   T   T
  0.0002402527285061  0.4167217595618823  0.384490299485734    T   T   T
  0.9986845783823072  0.7495857891669665  0.384722271372296    T   T   T
  0.1622000097775533  0.2502840049282573  0.370163592619143    T   T   T
  0.1618304993297601  0.5829124137023652  0.370502999156487    T   T   T
  0.1616178075915642  0.9162632640803424  0.369658286884046    T   T   T
  0.4945887140603889  0.2506724429463075  0.371414849245294    T   T   T
  0.4945515420149623  0.5824787009947668  0.371675466104909    T   T   T
  0.4942899273984979  0.9160685616386232  0.369962306410082    T   T   T
  0.8279530703273321  0.2509112436754951  0.372174333775110    T   T   T
  0.8277454336723273  0.5821004877765100  0.372146058203582    T   T   T
  0.8274709395819998  0.9165027318286146  0.371988838079092    T   T   T
  0.3247177399066365  0.2570534945812956  0.301179379528951    T   T   T
  0.3243614375065879  0.5769479047451367  0.301641169812578    T   T   T
  0.3190234911129698  0.9156945284228453  0.297944880701963    T   T   T
  0.6556934993952496  0.2504523363677527  0.301880742454766    T   T   T
  0.6552442955558672  0.5825124021233662  0.301919815859249    T   T   T
  0.6566516044582742  0.9164927354765877  0.301511047307922    T   T   T
  0.9869326147468760  0.2499098925155750  0.301685904059179    T   T   T
  0.9868717304568421  0.5836504151768878  0.301715682197227    T   T   T
  0.9865573764546267  0.9165055981008926  0.301710253475871    T   T   T
  0.1550700069999991  0.0833299980000035  0.253538036076870    F   F   F
  0.1550700069999991  0.4166699949999995  0.253538036076870    F   F   F
  0.1550700069999991  0.7500000000000000  0.253538036076870    F   F   F
  0.4884000119999996  0.0833299980000035  0.253538036076870    F   F   F
  0.4884000119999996  0.4166699949999995  0.253538036076870    F   F   F
  0.4884000119999996  0.7500000000000000  0.253538036076870    F   F   F
  0.8217300179999967  0.0833299980000035  0.253538036076870    F   F   F
  0.8217300179999967  0.4166699949999995  0.253538036076870    F   F   F
  0.8217300179999967  0.7500000000000000  0.253538036076870    F   F   F
  0.3262999949999994  0.0833299980000035  0.183674686854441    F   F   F
  0.3262999949999994  0.4166699949999995  0.183674686854441    F   F   F
  0.3262999949999994  0.7500000000000000  0.183674686854441    F   F   F
  0.6596300009999965  0.0833299980000035  0.183674686854441    F   F   F
  0.6596300009999965  0.4166699949999995  0.183674686854441    F   F   F
  0.6596300009999965  0.7500000000000000  0.183674686854441    F   F   F
  0.9929699899999989  0.0833299980000035  0.183674686854441    F   F   F
  0.9929699899999989  0.4166699949999995  0.183674686854441    F   F   F
  0.9929699899999989  0.7500000000000000  0.183674686854441    F   F   F
  0.1660300050000032  0.2500000000000000  0.170984667776626    F   F   F
  0.1660300050000032  0.5833299760000017  0.170984667776626    F   F   F
  0.1660300050000032  0.9166700239999983  0.170984667776626    F   F   F
  0.4993700090000033  0.2500000000000000  0.170984667776626    F   F   F
  0.4993700090000033  0.5833299760000017  0.170984667776626    F   F   F
  0.4993700090000033  0.9166700239999983  0.170984667776626    F   F   F
  0.8327000139999967  0.2500000000000000  0.170984667776626    F   F   F
  0.8327000139999967  0.5833299760000017  0.170984667776626    F   F   F
  0.8327000139999967  0.9166700239999983  0.170984667776626    F   F   F
  0.1673000010000010  0.0833299980000035  0.103913332320370    F   F   F
  0.1673000010000010  0.4166699949999995  0.103913332320370    F   F   F
  0.1673000010000010  0.7500000000000000  0.103913332320370    F   F   F
  0.5006300209999992  0.0833299980000035  0.103913332320370    F   F   F
  0.5006300209999992  0.4166699949999995  0.103913332320370    F   F   F
  0.5006300209999992  0.7500000000000000  0.103913332320370    F   F   F
  0.8339700100000016  0.0833299980000035  0.103913332320370    F   F   F
  0.8339700100000016  0.4166699949999995  0.103913332320370    F   F   F
  0.8339700100000016  0.7500000000000000  0.103913332320370    F   F   F
  0.0070300000000003  0.2500000000000000  0.091233808489233    F   F   F
  0.0070300000000003  0.5833299760000017  0.091233808489233    F   F   F
  0.0070300000000003  0.9166700239999983  0.091233808489233    F   F   F
  0.3403699990000035  0.2500000000000000  0.091233808489233    F   F   F
  0.3403699990000035  0.5833299760000017  0.091233808489233    F   F   F
  0.3403699990000035  0.9166700239999983  0.091233808489233    F   F   F
  0.6736999749999981  0.2500000000000000  0.091233808489233    F   F   F
  0.6736999749999981  0.5833299760000017  0.091233808489233    F   F   F
  0.6736999749999981  0.9166700239999983  0.091233808489233    F   F   F
  0.1782699970000010  0.2500000000000000  0.021359962970501    F   F   F
  0.1782699970000010  0.5833299760000017  0.021359962970501    F   F   F
  0.1782699970000010  0.9166700239999983  0.021359962970501    F   F   F
  0.5116000180000029  0.2500000000000000  0.021359962970501    F   F   F
  0.5116000180000029  0.5833299760000017  0.021359962970501    F   F   F
  0.5116000180000029  0.9166700239999983  0.021359962970501    F   F   F
  0.8449299930000009  0.2500000000000000  0.021359962970501    F   F   F
  0.8449299930000009  0.5833299760000017  0.021359962970501    F   F   F
  0.8449299930000009  0.9166700239999983  0.021359962970501    F   F   F
  0.0259370770635459  0.0831172237341194  0.473931496632816    T   T   T
  0.0274976063518727  0.4165994594660089  0.474368758018259    T   T   T
  0.0257888189406904  0.7506121896664818  0.474093362519200    T   T   T
  0.3601414453028970  0.0825865189584954  0.474042556345989    T   T   T
  0.3541105813831724  0.4158631290520656  0.464389527907588    T   T   T
  0.3598646058758209  0.7508107681831163  0.473714130021861    T   T   T
  0.6896303557138114  0.0832251112589772  0.474497234362932    T   T   T
  0.6985366620410741  0.4161462863487154  0.473528448689613    T   T   T
  0.6899058596753156  0.7495969074586130  0.474456620889553    T   T   T
  0.3068155141260694  0.2462501359279959  0.363562568470379    T   T   T
  0.3064149992264258  0.5868952648778516  0.364039200165575    T   T   T
  0.3058666366184782  0.9164806973838381  0.360627921732113    T   T   T
  0.6394503031995737  0.2496877287583902  0.364442691469523    T   T   T
  0.6393654234497741  0.5832012052635898  0.364502922210146    T   T   T
  0.6394534678274072  0.9163962114297559  0.363997509354220    T   T   T
  0.9725362649116835  0.2502298512183815  0.364341412144680    T   T   T
  0.9723177103367013  0.5830519131062851  0.364366740651336    T   T   T
  0.9720572078573267  0.9165791616945288  0.364373188293565    T   T   T
  0.1383199989999966  0.0833299980000035  0.190633735499861    F   F   F
  0.1383199989999966  0.4166699949999995  0.190633735499861    F   F   F
  0.1383199989999966  0.7500000000000000  0.190633735499861    F   F   F
  0.4716599879999990  0.0833299980000035  0.190633735499861    F   F   F
  0.4716599879999990  0.4166699949999995  0.190633735499861    F   F   F
  0.4716599879999990  0.7500000000000000  0.190633735499861    F   F   F
  0.8049899940000032  0.0833299980000035  0.190633735499861    F   F   F
  0.8049899940000032  0.4166699949999995  0.190633735499861    F   F   F
  0.8049899940000032  0.7500000000000000  0.190633735499861    F   F   F
  0.1950100059999968  0.2500000000000000  0.084274759843813    F   F   F
  0.1950100059999968  0.5833299760000017  0.084274759843813    F   F   F
  0.1950100059999968  0.9166700239999983  0.084274759843813    F   F   F
  0.5283399819999985  0.2500000000000000  0.084274759843813    F   F   F
  0.5283399819999985  0.9166700239999983  0.084274759843813    F   F   F
  0.5283399819999985  0.5833299760000017  0.084274759843813    F   F   F
  0.8616799710000009  0.2500000000000000  0.084274759843813    F   F   F
  0.8616799710000009  0.5833299760000017  0.084274759843813    F   F   F
  0.8616799710000009  0.9166700239999983  0.084274759843813    F   F   F
